19 965
525 7 479 7 355 7 108 9 934 13
525 7 479 7 355 7 108 9 934 13
525 7 505 7 381 7 218 9 50 11 851 15 667 21
525 7 505 7 381 7 218 9 50 11 851 15 667 21
525 7 482 7 362 7 118 9 854 11 672 18
525 7 482 7 365 7 115 9 949 13
525 7 479 7 355 7 162 12
525 7 504 7 362 7 209 9 25 11 818 15 619 21
525 7 504 7 362 7 209 9 25 11 818 15 619 21
525 7 504 7 362 7 209 9 25 11 818 15 619 21
528 7 504 7 413 7 254 9 80 11 923 15 770 20
528 7 504 7 413 7 254 9 80 11 923 15 770 20
528 7 504 7 413 7 254 9 80 11 923 15 770 20
525 7 476 7 354 7 155 9 5 11 838 15 649 20 566 28
525 7 482 7 365 7 115 9 943 13
525 7 446 7 267 7 66 9 891 11 731 18
525 7 482 7 367 7 213 9 32 11 824 18
525 7 482 7 367 7 213 9 32 11 824 18
528 7 482 7 301 7 114 9 881 11 697 15 578 22
